WARNING: for repeatability, setting FPU to use double precision
============================[ Problem Statistics ]=============================
|                                                                             |
|  Number of variables:            50                                         |
|  Number of clauses:             218                                         |
|  Parse time:                   0.00 s                                       |
|                                                                             |
============================[ Search Statistics ]==============================
| Conflicts |          ORIGINAL         |          LEARNT          | Progress |
|           |    Vars  Clauses Literals |    Limit  Clauses Lit/Cl |          |
===============================================================================
===============================================================================
restarts              : 1
conflicts             : 19             (13679 /sec)
decisions             : 27             (0.00 % random) (19438 /sec)
propagations          : 304            (218862 /sec)
conflict literals     : 94             (14.55 % deleted)
Memory used           : 20.00 MB
CPU time              : 0.001389 s

SATISFIABLE
